NAME : X_38_seed_123_id_8
TYPE : CVRP
DIMENSION : 275
EDGE_WEIGHT_TYPE : EUC_2D
CAPACITY : 10
NODE_COORD_SECTION
1	354	357
2	233	314
3	675	759
4	650	917
5	616	803
6	637	908
7	741	745
8	263	377
9	617	922
10	257	384
11	296	18
12	767	817
13	614	906
14	129	280
15	717	719
16	654	897
17	641	762
18	198	335
19	643	933
20	355	297
21	580	952
22	467	848
23	630	986
24	645	971
25	655	785
26	510	856
27	176	260
28	239	164
29	634	847
30	250	276
31	530	931
32	629	770
33	630	977
34	193	322
35	634	726
36	529	880
37	374	180
38	729	862
39	180	323
40	309	244
41	209	316
42	238	299
43	205	287
44	669	876
45	177	313
46	659	982
47	211	312
48	694	929
49	223	304
50	676	788
51	135	313
52	829	943
53	644	798
54	581	836
55	197	333
56	741	948
57	680	792
58	769	779
59	660	921
60	720	816
61	711	741
62	687	699
63	659	907
64	689	999
65	721	752
66	200	292
67	521	818
68	282	281
69	213	309
70	246	316
71	225	304
72	169	314
73	677	853
74	762	982
75	218	312
76	196	354
77	773	809
78	594	753
79	612	860
80	221	382
81	643	769
82	272	339
83	691	754
84	697	740
85	615	933
86	313	279
87	677	771
88	183	257
89	647	802
90	779	742
91	603	748
92	612	758
93	600	955
94	698	962
95	310	186
96	232	315
97	641	640
98	665	924
99	776	763
100	628	791
101	246	48
102	623	973
103	555	881
104	620	940
105	641	725
106	688	979
107	258	389
108	226	316
109	576	800
110	787	853
111	627	949
112	720	746
113	701	953
114	693	775
115	610	620
116	620	785
117	234	336
118	590	882
119	348	367
120	672	865
121	399	325
122	620	953
123	226	282
124	817	767
125	614	917
126	628	932
127	207	379
128	305	322
129	667	903
130	732	790
131	658	971
132	206	307
133	712	754
134	243	332
135	407	503
136	701	916
137	189	357
138	674	754
139	650	878
140	725	901
141	184	293
142	738	779
143	309	265
144	332	202
145	610	887
146	647	743
147	332	305
148	239	392
149	143	377
150	308	349
151	615	743
152	231	272
153	233	331
154	717	764
155	690	890
156	850	891
157	673	768
158	703	907
159	5	263
160	633	914
161	344	249
162	748	742
163	566	908
164	125	257
165	209	257
166	637	785
167	782	751
168	257	315
169	129	304
170	645	751
171	208	320
172	196	289
173	645	950
174	785	901
175	721	926
176	773	649
177	247	273
178	721	764
179	634	908
180	669	800
181	673	695
182	223	271
183	207	246
184	575	830
185	662	811
186	680	864
187	215	359
188	670	908
189	536	703
190	762	764
191	254	284
192	654	908
193	677	912
194	153	383
195	719	727
196	666	938
197	614	900
198	715	661
199	601	745
200	718	684
201	374	183
202	623	985
203	274	338
204	568	871
205	674	890
206	647	850
207	696	825
208	183	339
209	317	358
210	709	736
211	673	764
212	655	729
213	249	239
214	758	937
215	265	255
216	667	745
217	621	743
218	677	788
219	693	758
220	544	873
221	675	719
222	765	810
223	275	336
224	166	472
225	133	156
226	317	196
227	683	907
228	500	845
229	649	972
230	646	940
231	217	322
232	739	815
233	669	930
234	504	715
235	650	928
236	215	293
237	448	423
238	663	748
239	228	328
240	742	840
241	698	731
242	249	276
243	611	660
244	229	303
245	275	310
246	553	937
247	665	765
248	317	329
249	540	915
250	175	286
251	650	946
252	646	939
253	622	856
254	276	283
255	608	887
256	813	689
257	289	316
258	706	774
259	664	913
260	189	326
261	360	117
262	640	913
263	650	911
264	694	716
265	686	746
266	611	899
267	122	104
268	265	329
269	667	809
270	750	954
271	658	939
272	683	987
273	738	851
274	690	747
275	671	749
DEMAND_SECTION
1	0
2	1
3	1
4	1
5	1
6	1
7	1
8	1
9	1
10	1
11	1
12	1
13	1
14	1
15	1
16	1
17	1
18	1
19	1
20	1
21	1
22	1
23	1
24	1
25	1
26	1
27	1
28	1
29	1
30	1
31	1
32	1
33	1
34	1
35	1
36	1
37	1
38	1
39	1
40	1
41	1
42	1
43	1
44	1
45	1
46	1
47	1
48	1
49	1
50	1
51	1
52	1
53	1
54	1
55	1
56	1
57	1
58	1
59	1
60	1
61	1
62	1
63	1
64	1
65	1
66	1
67	1
68	1
69	1
70	1
71	1
72	1
73	1
74	1
75	1
76	1
77	1
78	1
79	1
80	1
81	1
82	1
83	1
84	1
85	1
86	1
87	1
88	1
89	1
90	1
91	1
92	1
93	1
94	1
95	1
96	1
97	1
98	1
99	1
100	1
101	1
102	1
103	1
104	1
105	1
106	1
107	1
108	1
109	1
110	1
111	1
112	1
113	1
114	1
115	1
116	1
117	1
118	1
119	1
120	1
121	1
122	1
123	1
124	1
125	1
126	1
127	1
128	1
129	1
130	1
131	1
132	1
133	1
134	1
135	1
136	1
137	1
138	1
139	1
140	1
141	1
142	1
143	1
144	1
145	1
146	1
147	1
148	1
149	1
150	1
151	1
152	1
153	1
154	1
155	1
156	1
157	1
158	1
159	1
160	1
161	1
162	1
163	1
164	1
165	1
166	1
167	1
168	1
169	1
170	1
171	1
172	1
173	1
174	1
175	1
176	1
177	1
178	1
179	1
180	1
181	1
182	1
183	1
184	1
185	1
186	1
187	1
188	1
189	1
190	1
191	1
192	1
193	1
194	1
195	1
196	1
197	1
198	1
199	1
200	1
201	1
202	1
203	1
204	1
205	1
206	1
207	1
208	1
209	1
210	1
211	1
212	1
213	1
214	1
215	1
216	1
217	1
218	1
219	1
220	1
221	1
222	1
223	1
224	1
225	1
226	1
227	1
228	1
229	1
230	1
231	1
232	1
233	1
234	1
235	1
236	1
237	1
238	1
239	1
240	1
241	1
242	1
243	1
244	1
245	1
246	1
247	1
248	1
249	1
250	1
251	1
252	1
253	1
254	1
255	1
256	1
257	1
258	1
259	1
260	1
261	1
262	1
263	1
264	1
265	1
266	1
267	1
268	1
269	1
270	1
271	1
272	1
273	1
274	1
275	1
DEPOT_SECTION
1
-1
EOF
